(set-info :source |printed by MathSAT|)
(declare-fun call_int6I.flby () Int)
(declare-fun call_bool6.b () Bool)
(declare-fun call_int6I.out.next () Bool)
(declare-fun b () Bool)
(declare-fun call_bool6.flby2.next () Bool)
(declare-fun call_bool6.flby.next () Bool)
(declare-fun call_int6I.ite.next () Int)
(declare-fun _OK_ () Bool)
(declare-fun call_bool6.out () Bool)
(declare-fun call_int6I.out () Bool)
(declare-fun b.next () Bool)
(declare-fun _OK_.next () Bool)
(declare-fun call_bool6.flby3.next () Bool)
(declare-fun call_bool6.flby () Bool)
(declare-fun a.next () Bool)
(declare-fun call_bool6.flby2 () Bool)
(declare-fun call_int6I.flby.next () Int)
(declare-fun call_bool6.a () Bool)
(declare-fun call_bool6.c () Bool)
(declare-fun call_int6I.time () Int)
(declare-fun call_bool6.c.next () Bool)
(declare-fun call_bool6.b.next () Bool)
(declare-fun call_bool6.a.next () Bool)
(declare-fun a () Bool)
(declare-fun call_int6I.time.next () Int)
(declare-fun call_bool6.out.next () Bool)
(declare-fun call_bool6.flby3 () Bool)
(define-fun .def_210 () Bool (= call_bool6.flby3.next call_bool6.c.next))
(define-fun .def_208 () Bool (= call_bool6.flby2.next call_bool6.b.next))
(define-fun .def_205 () Bool (= call_bool6.flby.next call_bool6.a.next))
(define-fun .def_202 () Bool (and call_bool6.a.next call_bool6.c.next))
(define-fun .def_203 () Bool (= call_bool6.out.next .def_202))
(define-fun .def_198 () Bool (= call_int6I.flby.next call_int6I.time.next))
(define-fun .def_195 () Bool (= call_int6I.time.next 5))
(define-fun .def_196 () Bool (= call_int6I.out.next .def_195))
(define-fun .def_192 () Bool (= b.next call_bool6.out.next))
(define-fun .def_189 () Bool (= a.next call_int6I.out.next))
(define-fun .def_186 () Bool (= a.next b.next))
(define-fun .def_187 () Bool (= _OK_.next .def_186))
(define-fun .def_190 () Bool (and .def_187 .def_189))
(define-fun .def_193 () Bool (and .def_190 .def_192))
(define-fun .def_197 () Bool (and .def_193 .def_196))
(define-fun .def_199 () Bool (and .def_197 .def_198))
(define-fun .def_204 () Bool (and .def_199 .def_203))
(define-fun .def_206 () Bool (and .def_204 .def_205))
(define-fun .def_209 () Bool (and .def_206 .def_208))
(define-fun .def_211 () Bool (and .def_209 .def_210))
(define-fun .def_144 () Bool (= call_bool6.c call_bool6.flby3))
(define-fun .def_141 () Bool (= call_bool6.b call_bool6.flby2))
(define-fun .def_137 () Bool (= call_bool6.a call_bool6.flby))
(define-fun .def_133 () Bool (and call_bool6.a call_bool6.c))
(define-fun .def_134 () Bool (= call_bool6.out .def_133))
(define-fun .def_129 () Bool (= call_int6I.time call_int6I.flby))
(define-fun .def_125 () Bool (= call_int6I.time 5))
(define-fun .def_126 () Bool (= call_int6I.out .def_125))
(define-fun .def_122 () Bool (= b call_bool6.out))
(define-fun .def_119 () Bool (= a call_int6I.out))
(define-fun .def_116 () Bool (= a b))
(define-fun .def_117 () Bool (= _OK_ .def_116))
(define-fun .def_120 () Bool (and .def_117 .def_119))
(define-fun .def_123 () Bool (and .def_120 .def_122))
(define-fun .def_127 () Bool (and .def_123 .def_126))
(define-fun .def_130 () Bool (and .def_127 .def_129))
(define-fun .def_135 () Bool (and .def_130 .def_134))
(define-fun .def_138 () Bool (and .def_135 .def_137))
(define-fun .def_142 () Bool (and .def_138 .def_141))
(define-fun .def_145 () Bool (and .def_142 .def_144))
(define-fun .def_212 () Bool (and .def_145 .def_211))
(define-fun .def_164 () Bool (not call_bool6.a))
(define-fun .def_178 () Bool (and call_bool6.c .def_164))
(define-fun .def_177 () Bool (and call_bool6.a call_bool6.b))
(define-fun .def_179 () Bool (and .def_177 .def_178))
(define-fun .def_181 () Bool (= .def_179 call_bool6.flby3.next))
(define-fun .def_172 () Bool (and call_bool6.b .def_164))
(define-fun .def_169 () Bool (not call_bool6.b))
(define-fun .def_168 () Bool (not call_bool6.c))
(define-fun .def_170 () Bool (and .def_168 .def_169))
(define-fun .def_171 () Bool (and call_bool6.a .def_170))
(define-fun .def_173 () Bool (or .def_171 .def_172))
(define-fun .def_175 () Bool (= .def_173 call_bool6.flby2.next))
(define-fun .def_166 () Bool (= .def_164 call_bool6.flby.next))
(define-fun .def_162 () Bool (= call_int6I.ite.next call_int6I.flby.next))
(define-fun .def_158 () Bool (not .def_125))
(define-fun .def_157 () Bool (= call_int6I.ite.next 1))
(define-fun .def_159 () Bool (or .def_157 .def_158))
(define-fun .def_155 () Bool (= call_int6I.time call_int6I.ite.next))
(define-fun .def_156 () Bool (or .def_125 .def_155))
(define-fun .def_160 () Bool (and .def_156 .def_159))
(define-fun .def_163 () Bool (and .def_160 .def_162))
(define-fun .def_167 () Bool (and .def_163 .def_166))
(define-fun .def_176 () Bool (and .def_167 .def_175))
(define-fun .def_182 () Bool (and .def_176 .def_181))
(define-fun .def_213 () Bool (and .def_182 .def_212))
(assert .def_213)
